certificates/rado_a11_c162_N30.cnf
c Rad2 upper bound instance: x1 + 11*x2 - x3 = 162, interval [1,30]
p cnf 30 162
1 4 15 0
-1 -4 -15 0
1 15 16 0
-1 -15 -16 0
1 17 26 0
-1 -17 -26 0
2 5 15 0
-2 -5 -15 0
2 16 0
-2 -16 0
2 17 27 0
-2 -17 -27 0
3 6 15 0
-3 -6 -15 0
3 16 17 0
-3 -16 -17 0
3 17 28 0
-3 -17 -28 0
4 7 15 0
-4 -7 -15 0
4 16 18 0
-4 -16 -18 0
4 17 29 0
-4 -17 -29 0
5 8 15 0
-5 -8 -15 0
5 16 19 0
-5 -16 -19 0
5 17 30 0
-5 -17 -30 0
6 9 15 0
-6 -9 -15 0
6 16 20 0
-6 -16 -20 0
7 10 15 0
-7 -10 -15 0
7 16 21 0
-7 -16 -21 0
8 11 15 0
-8 -11 -15 0
8 16 22 0
-8 -16 -22 0
1 9 14 0
-1 -9 -14 0
9 12 15 0
-9 -12 -15 0
9 16 23 0
-9 -16 -23 0
2 10 14 0
-2 -10 -14 0
10 13 15 0
-10 -13 -15 0
10 16 24 0
-10 -16 -24 0
3 11 14 0
-3 -11 -14 0
11 14 15 0
-11 -14 -15 0
11 16 25 0
-11 -16 -25 0
4 12 14 0
-4 -12 -14 0
12 15 0
-12 -15 0
12 16 26 0
-12 -16 -26 0
5 13 14 0
-5 -13 -14 0
13 15 16 0
-13 -15 -16 0
13 16 27 0
-13 -16 -27 0
6 14 0
-6 -14 0
14 15 17 0
-14 -15 -17 0
14 16 28 0
-14 -16 -28 0
7 14 15 0
-7 -14 -15 0
15 18 0
-15 -18 0
15 16 29 0
-15 -16 -29 0
8 14 16 0
-8 -14 -16 0
15 16 19 0
-15 -16 -19 0
16 30 0
-16 -30 0
9 14 17 0
-9 -14 -17 0
15 17 20 0
-15 -17 -20 0
10 14 18 0
-10 -14 -18 0
15 18 21 0
-15 -18 -21 0
11 14 19 0
-11 -14 -19 0
15 19 22 0
-15 -19 -22 0
1 13 20 0
-1 -13 -20 0
12 14 20 0
-12 -14 -20 0
15 20 23 0
-15 -20 -23 0
2 13 21 0
-2 -13 -21 0
13 14 21 0
-13 -14 -21 0
15 21 24 0
-15 -21 -24 0
3 13 22 0
-3 -13 -22 0
14 22 0
-14 -22 0
15 22 25 0
-15 -22 -25 0
4 13 23 0
-4 -13 -23 0
14 15 23 0
-14 -15 -23 0
15 23 26 0
-15 -23 -26 0
5 13 24 0
-5 -13 -24 0
14 16 24 0
-14 -16 -24 0
15 24 27 0
-15 -24 -27 0
6 13 25 0
-6 -13 -25 0
14 17 25 0
-14 -17 -25 0
15 25 28 0
-15 -25 -28 0
7 13 26 0
-7 -13 -26 0
14 18 26 0
-14 -18 -26 0
15 26 29 0
-15 -26 -29 0
8 13 27 0
-8 -13 -27 0
14 19 27 0
-14 -19 -27 0
15 27 30 0
-15 -27 -30 0
9 13 28 0
-9 -13 -28 0
14 20 28 0
-14 -20 -28 0
10 13 29 0
-10 -13 -29 0
14 21 29 0
-14 -21 -29 0
11 13 30 0
-11 -13 -30 0
14 22 30 0
-14 -22 -30 0
