certificates/rado_a11_c162_N30.drat
-27 -30 0
-28 -30 0
-30 0
16 0
-2 0
26 13 0
d 7 26 13 0
15 0
-1 0
-12 0
-13 0
-18 0
-29 0
-19 0
20 0
21 0
10 0
11 0
26 0
-23 0
-6 0
-17 0
-24 0
-7 0
-8 0
-14 0
-25 0
4 0
0
